Maximize

Subject to


sv_addi0 >= 0.000000
sv_addi1 >= 0.000000
sv_br1 >= 0.000000
sv_br2 >= 0.000000
sv_cmpi0 >= 0.000000
sv_cond_br1 >= 0.000000
sv_cond_br2 >= 0.000000
sv_cond_br3 >= 0.000000
sv_constant1 >= 0.000000
sv_constant2 >= 0.000000
sv_constant5 >= 0.000000
sv_extui0 >= 0.000000
sv_extui1 >= 0.000000
sv_extui2 >= 0.000000
sv_extui3 >= 0.000000
sv_extui4 >= 0.000000
sv_extui5 >= 0.000000
sv_extui6 >= 0.000000
sv_extui7 >= 0.000000
sv_index_cast0 >= 0.000000
sv_index_cast1 >= 0.000000
sv_index_cast2 >= 0.000000
sv_index_cast3 >= 0.000000
sv_index_cast4 >= 0.000000
sv_index_cast5 >= 0.000000
sv_index_cast6 >= 0.000000
sv_index_cast7 >= 0.000000
sv_load0 >= 0.000000
sv_load1 >= 0.000000
sv_load2 >= 0.000000
sv_load4 >= 0.000000
sv_load5 >= 0.000000
sv_load6 >= 0.000000
sv_muli0 >= 0.000000
sv_muli1 >= 0.000000
sv_muli2 >= 0.000000
sv_phi0 >= 0.000000
sv_phi1 >= 0.000000
sv_return1 >= 0.000000
sv_start0 >= 0.000000
sv_store3 >= 0.000000
sv_store7 >= 0.000000
General
sv_addi0 sv_addi1 sv_br1 sv_br2 sv_cmpi0 sv_cond_br1 sv_cond_br2 sv_cond_br3 sv_constant1 sv_constant2 sv_constant5 sv_extui0 sv_extui1 sv_extui2 sv_extui3 sv_extui4 sv_extui5 sv_extui6 sv_extui7 sv_index_cast0 sv_index_cast1 sv_index_cast2 sv_index_cast3 sv_index_cast4 sv_index_cast5 sv_index_cast6 sv_index_cast7 sv_load0 sv_load1 sv_load2 sv_load4 sv_load5 sv_load6 sv_muli0 sv_muli1 sv_muli2 sv_phi0 sv_phi1 sv_return1 sv_start0 sv_store3 sv_store7 

End
